1 0 1 0
2 0 2 0
3 0 1 8
0 0 2 5
2 1 3 5
1 1 2 8
3 1 0 13
5 0 1 13
2 2 5 9
5 1 3 16
4 0 2 13
1 2 4 13
2 3 0 18
0 1 0 27
4 1 1 22
3 2 2 22
5 2 5 19
5 3 0 30
0 2 1 30
1 3 5 28
2 4 1 36
3 3 3 27
4 2 4 25
0 3 3 36
4 3 5 38
3 4 4 30
0 4 5 43
2 5 4 38
1 4 0 40
5 4 4 45
4 4 0 50
3 5 5 46
0 5 4 49
1 5 3 50
5 5 2 49
4 5 3 54

